(set-info :source |printed by MathSAT|)
(declare-fun x () Int)
(assert (let ((.def_16 (= x (- 1))))
(let ((.def_17 (not .def_16)))
.def_17)))
(set-info :source |printed by MathSAT|)
(declare-fun x () Int)
(assert (let ((.def_16 (= x (- 1))))
(let ((.def_17 (not .def_16)))
.def_17)))
(set-info :source |printed by MathSAT|)
(assert false)
